n_machines = 5;
n_resources = 7;
n_jobs = 70;
horizon = 37582;
LB = 7516;
n_jobs_per_resource = [10, 10, 10, 10, 10, 10, 10];
duration = [654, 583, 363, 469, 713, 109, 486, 273, 474, 880, 997, 202, 527, 699, 622, 202, 922, 917, 12, 739, 956, 572, 957, 358, 607, 968, 797, 7, 114, 817, 644, 338, 583, 913, 318, 663, 548, 990, 979, 490, 544, 371, 123, 641, 215, 854, 786, 718, 676, 116, 276, 908, 634, 729, 85, 687, 144, 788, 719, 428, 663, 182, 305, 495, 721, 539, 113, 252, 135, 273]